unsat
(:added-eqs                   949164
 :arith-eq-adapter            2601
 :arith-bound-propagations-lp 36893
 :arith-conflicts             333
 :arith-diseq                 45692
 :arith-fixed-eqs             48736
 :arith-lower                 48263
 :arith-make-feasible         21707
 :arith-max-columns           1226
 :arith-max-rows              625
 :arith-offset-eqs            13935
 :arith-upper                 77308
 :binary-propagations         7319225
 :conflicts                   12652
 :decisions                   831845
 :del-clause                  13626
 :elim-unconstrained          2
 :max-memory                  55.06
 :memory                      37.33
 :minimized-lits              60038
 :mk-bool-var                 21083
 :mk-clause                   22833
 :mk-clause-binary            64223
 :num-allocs                  207293490
 :num-checks                  1
 :propagations                9284507
 :restarts                    85
 :rlimit-count                26522590
 :time                        9.20
 :total-time                  9.51)
